c Created with the Wolfram Language : www.wolfram.com
c 
p edge 90 202
e 1 3
e 1 11
e 4 12
e 10 13
e 1 16
e 8 16
e 9 16
e 10 16
e 2 17
e 3 17
e 4 18
e 2 21
e 15 21
e 8 22
e 10 24
e 15 26
e 14 27
e 12 28
e 22 28
e 24 28
e 2 29
e 13 29
e 17 29
e 26 30
e 16 32
e 31 32
e 18 33
e 8 34
e 12 34
e 15 34
e 1 35
e 17 36
e 18 36
e 2 37
e 14 37
e 17 39
e 29 39
e 30 40
e 11 41
e 40 42
e 34 43
e 15 44
e 24 44
e 34 44
e 15 45
e 20 45
e 5 46
e 14 47
e 14 48
e 1 51
e 2 51
e 5 52
e 14 52
e 25 52
e 6 53
e 12 53
e 45 53
e 11 54
e 20 54
e 49 54
e 51 54
e 16 55
e 20 55
e 27 55
e 3 56
e 2 57
e 8 58
e 24 58
e 36 58
e 12 59
e 13 59
e 31 59
e 37 59
e 39 59
e 45 59
e 58 59
e 15 60
e 33 61
e 41 61
e 54 61
e 55 61
e 9 62
e 14 62
e 22 62
e 23 62
e 60 62
e 33 63
e 13 64
e 38 64
e 62 64
e 21 65
e 50 65
e 60 65
e 6 66
e 17 66
e 56 66
e 60 67
e 7 68
e 46 68
e 48 68
e 24 69
e 49 69
e 51 69
e 56 69
e 58 69
e 60 69
e 68 69
e 54 70
e 1 71
e 21 71
e 23 71
e 39 71
e 7 72
e 43 72
e 48 72
e 50 72
e 60 72
e 7 73
e 38 73
e 62 73
e 40 74
e 49 74
e 56 74
e 62 74
e 67 74
e 20 75
e 38 75
e 63 75
e 2 76
e 39 76
e 40 76
e 59 76
e 66 76
e 70 76
e 16 77
e 23 77
e 26 77
e 31 77
e 37 77
e 41 77
e 74 77
e 9 78
e 17 78
e 1 79
e 3 79
e 9 79
e 29 79
e 53 79
e 62 79
e 2 80
e 3 80
e 19 80
e 20 80
e 23 80
e 34 80
e 39 80
e 48 80
e 49 80
e 59 80
e 11 81
e 15 81
e 63 81
e 5 82
e 16 82
e 22 82
e 31 82
e 39 82
e 50 82
e 56 82
e 58 82
e 79 82
e 28 83
e 62 83
e 72 83
e 8 84
e 20 84
e 33 84
e 37 84
e 79 84
e 80 84
e 1 85
e 19 85
e 68 85
e 9 86
e 11 86
e 20 86
e 26 86
e 28 86
e 39 86
e 52 87
e 54 87
e 63 87
e 83 87
e 44 88
e 33 89
e 47 89
e 56 89
e 15 90
e 41 90
e 58 90
e 60 90
e 77 90
